NAME : Random_TSP_Instance
TYPE : TSP
DIMENSION : 12
EDGE_WEIGHT_TYPE : EXPLICIT
EDGE_WEIGHT_FORMAT : FULL_MATRIX
NODE_COORD_TYPE : NO_COORDS
DISPLAY_DATA_TYPE: TWOD_DISPLAY
EDGE_WEIGHT_SECTION
0.000000 34.721739 920471.341394 920471.341394 920471.341394 31.145479 920471.341394 920471.341394 920471.341394 920471.341394 920471.341394 920471.341394
34.721739 0.000000 19.707245 920471.341394 920471.341394 920471.341394 920471.341394 920471.341394 920471.341394 920471.341394 920471.341394 920471.341394
920471.341394 19.707245 0.000000 920471.341394 50.518291 920471.341394 920471.341394 920471.341394 920471.341394 920471.341394 920471.341394 920471.341394
920471.341394 920471.341394 920471.341394 0.000000 920471.341394 62.603107 920471.341394 920471.341394 920471.341394 920471.341394 920471.341394 89.711146
920471.341394 920471.341394 50.518291 920471.341394 0.000000 920471.341394 920471.341394 920471.341394 30.221419 920471.341394 920471.341394 920471.341394
31.145479 920471.341394 920471.341394 62.603107 920471.341394 0.000000 920471.341394 920471.341394 920471.341394 920471.341394 920471.341394 920471.341394
920471.341394 920471.341394 920471.341394 920471.341394 920471.341394 920471.341394 0.000000 62.988392 920471.341394 920471.341394 87.037318 920471.341394
920471.341394 920471.341394 920471.341394 920471.341394 920471.341394 920471.341394 62.988392 0.000000 920471.341394 54.619700 920471.341394 920471.341394
920471.341394 920471.341394 920471.341394 920471.341394 30.221419 920471.341394 920471.341394 920471.341394 0.000000 66.265462 920471.341394 920471.341394
920471.341394 920471.341394 920471.341394 920471.341394 920471.341394 920471.341394 920471.341394 54.619700 66.265462 0.000000 920471.341394 920471.341394
920471.341394 920471.341394 920471.341394 920471.341394 920471.341394 920471.341394 87.037318 920471.341394 920471.341394 920471.341394 0.000000 54.542829
920471.341394 920471.341394 920471.341394 89.711146 920471.341394 920471.341394 920471.341394 920471.341394 920471.341394 920471.341394 54.542829 0.000000
EOF
